NAME : Proba_2
DIMENSION : 25
TYPE : TSP
PATH : (6)(4)+(10)+(7)+(5)+(2)+(17)(19)+(14)++(1)+(13)+(8)+(21)+(15)+(18)+(16)+(9)+(20)+(12)+(3)+(25)+(22)+(23)+(24)+(11)+
1 10 560
2 51 483
3 57 93
4 66 436
5 106 326
6 107 321
7 117 138
8 220 142
9 251 496
10 255 342
11 337 196
12 338 248
13 342 482
14 363 419
15 375 375
16 425 216
17 441 377
18 458 133
19 474 288
20 484 547
21 533 297
22 546 268
23 556 327
24 561 332
25 575 92
